100
32
2
19
10
3
31
10
32
10
10
10
13
3
27
8
9
7
11
2
11
5
18
2
2
17
16
20
4
3
2
17
4
1
17
3
1
1
2
3
2
1
2
3
2
3
2
1
1
21
3
2
2
1
7
3
3
3
1
2
10
6
19
1
1
1
17
17
2
2
9
1
2
1
1
4
2
1
3
3
7
2
18
2
5
1
17
17
2
3
2
1
2
1
5
2
1
2
1
2
2
1